3 
4  55 
5  17 33 47 56 
6  01 06 11 17 21 27 31 36 41 46 51 56 
7  02 06 12 16 21 26 31 36 41 46 51 56 
8  01 06 11 16 21 26 31 36 41 46 51 56 
9  04 11 19 26 34 42 50 57 
10  05 14 21 29 36 44 51 59 
11  06 14 21 29 36 44 51 59 
12  06 14 21 29 36 44 51 59 
13  06 14 21 29 36 44 51 59 
14  06 14 21 30 37 42 47 52 57 
15  02 06 12 17 21 27 32 36 42 47 51 57 
16  02 06 12 17 21 27 32 36 42 47 51 57 
17  02 06 12 17 21 27 32 36 42 47 51 57 
18  02 06 12 17 21 27 32 36 42 47 56 
19  01 08 15 23 31 38 47 56 
20  05 13 20 27 35 43 50 58 
21  05 13 20 28 35 47 
22  02 17 32 47 
23  02 17 
0 
